p cnf 40 140
-25 -22 15 0
19 -36 -18 0
-16 -2 -29 0
-21 -11 17 0
-38 -3 28 0
-24 31 9 0
10 12 4 0
-37 -12 28 0
10 -7 6 0
26 15 -2 0
-26 -28 -35 0
30 21 12 0
-7 -9 -27 0
-27 39 7 0
30 -27 -29 0
-16 18 -25 0
-25 19 29 0
2 15 -12 0
36 37 40 0
-8 29 -39 0
-26 23 -18 0
-10 33 -34 0
-5 -3 33 0
26 -20 -19 0
-8 18 -40 0
16 7 33 0
31 19 -5 0
-25 -4 -40 0
-2 13 27 0
12 -28 -2 0
-10 2 -38 0
-18 -40 2 0
12 -3 34 0
-5 37 35 0
32 6 29 0
-5 -35 21 0
12 6 -5 0
-12 17 11 0
20 -21 -2 0
-8 2 -10 0
-18 -23 -11 0
-26 -31 -17 0
-37 11 16 0
4 13 -21 0
18 19 -6 0
-10 -26 35 0
-15 -24 27 0
15 -3 13 0
-32 -27 6 0
-40 4 8 0
6 -2 37 0
-3 -10 -40 0
35 26 -25 0
-38 6 -34 0
-14 12 -18 0
16 -34 15 0
-18 21 -16 0
-10 -11 23 0
-5 -36 8 0
-18 24 16 0
-11 5 12 0
31 -14 19 0
-23 -29 -31 0
20 10 7 0
-30 -10 31 0
-23 6 -8 0
-22 -14 -1 0
-38 -28 5 0
7 -40 -28 0
-7 2 -29 0
-22 -26 16 0
-26 -3 28 0
-23 12 39 0
26 -4 -31 0
18 11 -35 0
-16 31 33 0
-4 -23 -40 0
22 17 21 0
37 -14 2 0
6 -30 -9 0
-33 11 -32 0
-6 -9 -30 0
-12 7 -25 0
12 3 35 0
17 -4 12 0
29 -23 16 0
-28 -31 39 0
-13 -17 -2 0
-1 38 29 0
40 -12 -15 0
33 -11 31 0
-10 -14 29 0
34 15 -3 0
-22 39 -29 0
39 -27 -4 0
-36 -40 -18 0
-35 23 -2 0
-33 -21 -13 0
-22 6 -23 0
9 -37 -13 0
-21 -14 -24 0
34 39 -6 0
-18 -2 -25 0
29 -27 -34 0
36 -26 4 0
-9 -6 -17 0
14 28 -31 0
-18 15 10 0
13 36 25 0
38 -14 -17 0
-2 -26 -14 0
-1 6 -3 0
-23 -38 -15 0
-31 37 26 0
6 -20 28 0
-28 -23 25 0
15 -37 -4 0
-23 -5 -10 0
-38 9 6 0
29 34 35 0
40 -9 29 0
-19 -25 2 0
-27 19 -1 0
-9 -14 -26 0
27 -12 -29 0
-8 24 -25 0
10 38 -1 0
-21 12 -10 0
15 -29 37 0
-4 18 -40 0
11 33 -30 0
-30 -15 14 0
-14 1 8 0
31 18 -6 0
36 -4 38 0
9 -21 36 0
19 -31 25 0
14 25 -39 0
18 6 -25 0
-17 6 -2 0
