p cnf 16 130
-7 -8 -9 0
-15 12 1 0
12 -16 3 0
12 4 8 0
11 -9 16 0
-5 2 13 0
8 11 -13 0
-16 -4 -6 0
-3 -1 13 0
-16 15 7 0
-14 3 -16 0
12 -11 -4 0
-6 8 -4 0
3 7 -15 0
-8 -14 16 0
16 -8 -7 0
5 13 -3 0
4 -14 -1 0
13 -6 -5 0
-16 -13 14 0
-12 2 -1 0
1 -13 11 0
13 -11 14 0
-9 -7 -16 0
1 6 -5 0
2 11 14 0
-2 11 -8 0
-13 16 -7 0
-2 7 -9 0
2 7 -5 0
10 4 -8 0
-2 9 11 0
13 -11 -5 0
-15 -7 3 0
-4 6 9 0
9 -6 -2 0
13 15 -7 0
-2 16 9 0
-13 -10 3 0
-15 -14 16 0
-10 -13 -3 0
4 -2 -6 0
2 -1 3 0
-15 -16 -7 0
-15 -7 -11 0
3 -9 -11 0
11 15 -3 0
5 -8 3 0
16 -7 4 0
-13 -2 -6 0
5 6 -2 0
12 2 -4 0
1 5 -2 0
15 11 -6 0
16 -5 10 0
-15 1 -13 0
-5 15 -2 0
-6 -14 -5 0
-14 -11 7 0
-4 -14 3 0
-15 -9 10 0
-13 2 -6 0
6 10 -13 0
16 11 7 0
3 -8 6 0
2 7 14 0
10 12 16 0
11 14 -1 0
-4 -8 -3 0
-8 -15 -7 0
-16 -12 -13 0
4 -5 -13 0
-2 11 12 0
-9 4 -14 0
-8 6 -13 0
8 7 -1 0
16 9 5 0
-11 9 14 0
3 8 -16 0
2 6 -10 0
2 -9 10 0
-1 6 -9 0
16 1 -7 0
-13 10 -1 0
8 14 10 0
-8 2 12 0
11 5 -16 0
13 4 15 0
11 1 13 0
-3 4 -9 0
7 12 14 0
1 -15 -11 0
12 -6 -4 0
-1 -13 9 0
-13 -1 -11 0
9 2 -12 0
-8 -6 -7 0
-15 13 12 0
4 12 16 0
-13 14 -16 0
-12 -5 -9 0
-10 4 -1 0
3 5 -11 0
6 12 7 0
-2 -1 9 0
-2 8 6 0
-7 -2 -16 0
-7 -2 15 0
-4 14 -3 0
-6 13 11 0
9 -13 4 0
16 2 -12 0
-16 -3 11 0
-11 -9 3 0
6 1 5 0
-4 7 -6 0
-11 12 10 0
-10 -14 -3 0
14 -8 -13 0
2 9 3 0
1 15 -8 0
13 -9 -15 0
10 2 16 0
-13 4 10 0
-4 16 2 0
-14 -5 -8 0
-5 -11 2 0
-10 -16 -12 0
-16 9 3 0
14 13 1 0
