p cnf 20 60
15 -18 20 0
17 16 6 0
-2 -13 15 0
1 17 3 0
1 -15 -11 0
-10 16 1 0
18 3 9 0
3 -19 4 0
1 -20 7 0
-13 14 -3 0
11 -3 -10 0
-4 5 8 0
16 -6 -18 0
5 14 13 0
-9 19 10 0
20 19 4 0
1 11 10 0
8 1 -12 0
-16 19 5 0
8 -20 -7 0
13 16 3 0
9 -8 -13 0
-10 -17 6 0
16 -18 3 0
1 3 9 0
-10 12 17 0
-15 11 17 0
-1 -16 12 0
-3 16 -20 0
3 15 -18 0
5 11 12 0
-14 -1 16 0
19 -1 -3 0
-14 -11 13 0
-15 -18 3 0
3 -16 1 0
-20 16 9 0
20 -7 -17 0
15 -16 8 0
14 -7 19 0
5 -20 16 0
3 9 -6 0
14 13 -17 0
20 15 -11 0
2 -9 12 0
5 -13 15 0
5 -2 -4 0
12 3 7 0
-1 16 18 0
-12 -18 17 0
-8 -3 14 0
15 -7 -1 0
-11 15 -20 0
-4 -7 -8 0
-18 -11 9 0
3 2 15 0
1 7 -3 0
-5 -16 -20 0
-15 16 -3 0
-18 -6 17 0
