p cnf 24 80
-10 3 -1 0
5 24 -7 0
-1 4 3 0
21 24 -14 0
19 12 -22 0
-19 12 10 0
16 -6 -23 0
-6 -18 -11 0
3 4 -14 0
19 11 4 0
15 18 -7 0
23 16 -8 0
4 13 -6 0
-13 -1 -6 0
-24 2 18 0
1 13 16 0
7 15 -10 0
-6 23 18 0
-6 -1 15 0
-6 20 -23 0
-21 24 8 0
-18 20 -2 0
-11 18 -24 0
-3 11 -18 0
16 15 23 0
5 -24 13 0
-15 24 14 0
-20 23 -18 0
-9 -3 8 0
-1 22 15 0
-12 10 9 0
-14 -22 -16 0
23 3 -13 0
-17 -12 4 0
15 -1 2 0
19 -21 16 0
-12 -19 5 0
-17 13 20 0
23 -21 -20 0
-6 1 -5 0
-16 -23 -10 0
20 19 4 0
-7 14 -11 0
-14 22 -12 0
-24 -10 -15 0
-5 12 -13 0
-16 -13 -12 0
7 11 -14 0
-16 6 -19 0
2 22 -10 0
-19 -16 1 0
-20 -6 15 0
3 15 1 0
2 -14 -13 0
22 -9 24 0
-19 17 15 0
-16 -22 5 0
1 -17 -20 0
10 9 -23 0
-18 10 -11 0
19 -18 5 0
-4 23 -10 0
3 -2 24 0
9 -18 19 0
-7 24 -22 0
6 -7 16 0
-1 -20 -13 0
2 -21 1 0
-19 17 -18 0
3 -15 11 0
-6 -7 10 0
-5 -19 22 0
-17 -7 -6 0
-7 3 -9 0
5 4 -17 0
-13 11 -4 0
14 -15 7 0
-2 -19 4 0
18 12 -21 0
-6 9 -12 0
