p cnf 30 100
-22 -20 -3 0
-21 17 -2 0
-4 22 15 0
24 -14 -15 0
2 3 14 0
-23 14 -27 0
-2 -26 17 0
-1 21 -17 0
-1 -11 12 0
-1 29 7 0
-21 30 -10 0
16 -5 7 0
4 -18 21 0
21 5 11 0
-19 6 -21 0
16 -1 19 0
4 -23 -6 0
1 -12 9 0
6 13 -15 0
2 7 -27 0
-16 -12 25 0
-28 -18 -22 0
-21 -1 9 0
-15 -8 11 0
-7 -28 -21 0
16 -3 -30 0
-21 26 19 0
16 -5 -29 0
20 -19 3 0
-12 22 30 0
11 -27 -3 0
9 -16 8 0
1 -24 -6 0
3 22 18 0
19 22 2 0
-6 27 -17 0
21 7 3 0
8 26 -6 0
1 9 23 0
-5 -29 21 0
-2 3 -1 0
-8 19 -9 0
8 -16 26 0
27 29 -20 0
-17 -3 19 0
-16 -28 -12 0
-3 -6 16 0
-10 5 15 0
-14 21 15 0
-17 -24 2 0
-10 29 -28 0
-8 -27 -2 0
-13 -12 2 0
26 -21 3 0
12 -15 -30 0
-25 -21 28 0
18 -27 16 0
29 -17 22 0
-13 -18 -17 0
-25 26 -23 0
6 -17 -24 0
7 16 18 0
6 -1 21 0
10 -6 28 0
-13 -16 19 0
6 4 -8 0
-10 23 -11 0
4 -10 -8 0
-6 17 27 0
23 2 -3 0
2 25 -20 0
-15 -9 -14 0
24 15 16 0
6 -24 27 0
10 6 -16 0
10 26 22 0
-24 12 -14 0
-10 -2 -15 0
-8 22 17 0
-2 -3 -5 0
-10 26 11 0
24 -19 -15 0
-4 -15 -8 0
-6 21 25 0
-18 21 -25 0
6 16 -14 0
-29 21 -26 0
-5 28 9 0
11 -10 -21 0
15 11 20 0
-10 -28 24 0
25 -12 2 0
24 13 21 0
-9 12 17 0
25 19 1 0
26 -23 22 0
20 3 -27 0
12 -17 -30 0
-13 11 22 0
-13 30 17 0
